(set-info :source |printed by MathSAT|)
(declare-fun |.x{257}| () Int)
(declare-fun |.y{7}| () Int)
(declare-fun |.y{6}| () Int)
(declare-fun |.y{8}| () Int)
(declare-fun |.x{258}| () (Array Int Int))
(declare-fun |.y{9}| () (Array Int Int))
(declare-fun |.x{256}| () Int)
(declare-fun |.y{10}| () Int)
(declare-fun |.x{253}| () Int)
(declare-fun |.y{11}| () Int)
(declare-fun |.loc{5}| () Bool)
(declare-fun |.loc{9}| () Bool)
(declare-fun |.loc{6}| () Bool)
(declare-fun |.loc{10}| () Bool)
(declare-fun |.loc{7}| () Bool)
(declare-fun |.loc{11}| () Bool)
(declare-fun |.loc{8}| () Bool)
(declare-fun |.loc{12}| () Bool)
(declare-fun |.x{259}| () Int)
(define-fun .def_18 () Bool (! |.loc{5}| :next |.loc{9}|))
(define-fun .def_82 () Bool (not .def_18))
(define-fun .def_20 () Bool (! |.loc{6}| :next |.loc{10}|))
(define-fun .def_67 () Bool (not .def_20))
(define-fun .def_314 () Bool (and .def_67 .def_82))
(define-fun .def_22 () Bool (! |.loc{7}| :next |.loc{11}|))
(define-fun .def_27 () Bool (not .def_22))
(define-fun .def_315 () Bool (and .def_27 .def_314))
(define-fun .def_24 () Bool (! |.loc{8}| :next |.loc{12}|))
(define-fun .def_26 () Bool (not .def_24))
(define-fun .def_316 () Bool (! (and .def_26 .def_315) :init true))
(define-fun .def_12 () (Array Int Int) (! |.x{258}| :next |.y{9}|))
(define-fun .def_269 () Int (select .def_12 |.x{259}|))
(define-fun .def_270 () Bool (= .def_269 48))
(define-fun .def_290 () Bool (not .def_270))
(define-fun .def_57 () Int (* (- 1) |.x{259}|))
(define-fun .def_14 () Int (! |.x{256}| :next |.y{10}|))
(define-fun .def_252 () Int (+ .def_14 .def_57))
(define-fun .def_8 () Int (! |.x{257}| :next |.y{7}|))
(define-fun .def_253 () Int (+ .def_8 .def_252))
(define-fun .def_254 () Bool (= .def_253 0))
(define-fun .def_285 () Bool (and .def_27 .def_254))
(define-fun .def_286 () Bool (and |.loc{9}| .def_285))
(define-fun .def_16 () Int (! |.x{253}| :next |.y{11}|))
(define-fun .def_256 () Bool (<= .def_16 .def_14))
(define-fun .def_257 () Bool (not .def_256))
(define-fun .def_287 () Bool (and .def_257 .def_286))
(define-fun .def_50 () Bool (<= .def_8 0))
(define-fun .def_48 () Bool (<= |.x{259}| 0))
(define-fun .def_49 () Bool (not .def_48))
(define-fun .def_51 () Bool (or .def_49 .def_50))
(define-fun .def_288 () Bool (and .def_51 .def_287))
(define-fun .def_53 () Bool (not .def_50))
(define-fun .def_289 () Bool (and .def_53 .def_288))
(define-fun .def_291 () Bool (and .def_289 .def_290))
(define-fun .def_292 () Bool (and .def_24 .def_291))
(define-fun .def_293 () Bool (and .def_82 .def_292))
(define-fun .def_294 () Bool (and .def_67 .def_293))
(define-fun .def_280 () Bool (= .def_14 |.y{11}|))
(define-fun .def_275 () Bool (= |.y{10}| 0))
(define-fun .def_88 () Bool (not |.loc{9}|))
(define-fun .def_141 () Bool (and .def_26 .def_88))
(define-fun .def_276 () Bool (and .def_141 .def_275))
(define-fun .def_10 () Int (! |.y{6}| :next |.y{8}|))
(define-fun .def_43 () Bool (<= .def_14 .def_10))
(define-fun .def_277 () Bool (and .def_43 .def_276))
(define-fun .def_34 () Bool (= .def_8 |.y{7}|))
(define-fun .def_278 () Bool (and .def_34 .def_277))
(define-fun .def_107 () Bool (= .def_12 |.y{9}|))
(define-fun .def_279 () Bool (and .def_107 .def_278))
(define-fun .def_281 () Bool (and .def_279 .def_280))
(define-fun .def_282 () Bool (and .def_18 .def_281))
(define-fun .def_283 () Bool (and .def_20 .def_282))
(define-fun .def_284 () Bool (and .def_22 .def_283))
(define-fun .def_295 () Bool (or .def_284 .def_294))
(define-fun .def_267 () Bool (= .def_16 |.y{11}|))
(define-fun .def_262 () Int (* (- 1) |.y{10}|))
(define-fun .def_263 () Int (+ .def_14 .def_262))
(define-fun .def_264 () Bool (= .def_263 (- 1)))
(define-fun .def_89 () Bool (and .def_27 .def_88))
(define-fun .def_255 () Bool (and .def_89 .def_254))
(define-fun .def_258 () Bool (and .def_255 .def_257))
(define-fun .def_259 () Bool (and .def_34 .def_258))
(define-fun .def_260 () Bool (and .def_107 .def_259))
(define-fun .def_261 () Bool (and .def_51 .def_260))
(define-fun .def_265 () Bool (and .def_261 .def_264))
(define-fun .def_266 () Bool (and .def_53 .def_265))
(define-fun .def_268 () Bool (and .def_266 .def_267))
(define-fun .def_271 () Bool (and .def_268 .def_270))
(define-fun .def_272 () Bool (and .def_24 .def_271))
(define-fun .def_273 () Bool (and .def_82 .def_272))
(define-fun .def_274 () Bool (and .def_67 .def_273))
(define-fun .def_296 () Bool (or .def_274 .def_295))
(define-fun .def_297 () Bool (and |.loc{12}| .def_296))
(define-fun .def_32 () Bool (not |.loc{10}|))
(define-fun .def_298 () Bool (and .def_32 .def_297))
(define-fun .def_41 () Bool (not |.loc{11}|))
(define-fun .def_299 () Bool (and .def_41 .def_298))
(define-fun .def_169 () Bool (and |.loc{9}| .def_26))
(define-fun .def_225 () Bool (and |.loc{10}| .def_169))
(define-fun .def_30 () Bool (not |.loc{12}|))
(define-fun .def_226 () Bool (and .def_30 .def_225))
(define-fun .def_227 () Bool (and |.loc{11}| .def_226))
(define-fun .def_242 () Bool (and .def_43 .def_227))
(define-fun .def_243 () Bool (and .def_34 .def_242))
(define-fun .def_244 () Bool (and .def_107 .def_243))
(define-fun .def_80 () Bool (= |.y{8}| 0))
(define-fun .def_245 () Bool (and .def_80 .def_244))
(define-fun .def_55 () Bool (= .def_14 |.y{10}|))
(define-fun .def_246 () Bool (and .def_55 .def_245))
(define-fun .def_247 () Bool (and .def_20 .def_246))
(define-fun .def_248 () Bool (and .def_22 .def_247))
(define-fun .def_249 () Bool (and .def_82 .def_248))
(define-fun .def_300 () Bool (or .def_249 .def_299))
(define-fun .def_231 () (Array Int Int) (store .def_12 |.x{259}| 48))
(define-fun .def_232 () Bool (= |.y{9}| .def_231))
(define-fun .def_228 () Bool (and .def_34 .def_227))
(define-fun .def_37 () Int (* (- 1) |.y{8}|))
(define-fun .def_38 () Int (+ .def_10 .def_37))
(define-fun .def_39 () Bool (= .def_38 (- 1)))
(define-fun .def_229 () Bool (and .def_39 .def_228))
(define-fun .def_233 () Bool (and .def_229 .def_232))
(define-fun .def_44 () Bool (not .def_43))
(define-fun .def_234 () Bool (and .def_44 .def_233))
(define-fun .def_235 () Bool (and .def_51 .def_234))
(define-fun .def_236 () Bool (and .def_53 .def_235))
(define-fun .def_237 () Bool (and .def_55 .def_236))
(define-fun .def_58 () Int (+ .def_10 .def_57))
(define-fun .def_59 () Int (+ .def_8 .def_58))
(define-fun .def_60 () Bool (= .def_59 0))
(define-fun .def_238 () Bool (and .def_60 .def_237))
(define-fun .def_239 () Bool (and .def_18 .def_238))
(define-fun .def_240 () Bool (and .def_20 .def_239))
(define-fun .def_241 () Bool (and .def_22 .def_240))
(define-fun .def_301 () Bool (or .def_241 .def_300))
(define-fun .def_214 () Bool (and |.loc{10}| .def_141))
(define-fun .def_215 () Bool (and .def_30 .def_214))
(define-fun .def_216 () Bool (and |.loc{11}| .def_215))
(define-fun .def_217 () Bool (and .def_43 .def_216))
(define-fun .def_218 () Bool (and .def_34 .def_217))
(define-fun .def_219 () Bool (and .def_107 .def_218))
(define-fun .def_220 () Bool (and .def_80 .def_219))
(define-fun .def_221 () Bool (and .def_55 .def_220))
(define-fun .def_222 () Bool (and .def_18 .def_221))
(define-fun .def_223 () Bool (and .def_22 .def_222))
(define-fun .def_224 () Bool (and .def_67 .def_223))
(define-fun .def_302 () Bool (or .def_224 .def_301))
(define-fun .def_197 () (Array Int Int) (store .def_12 |.x{259}| 47))
(define-fun .def_198 () Bool (= |.y{9}| .def_197))
(define-fun .def_199 () Bool (and .def_88 .def_198))
(define-fun .def_200 () Bool (and .def_26 .def_199))
(define-fun .def_201 () Bool (and |.loc{10}| .def_200))
(define-fun .def_202 () Bool (and .def_30 .def_201))
(define-fun .def_203 () Bool (and |.loc{11}| .def_202))
(define-fun .def_204 () Bool (and .def_34 .def_203))
(define-fun .def_205 () Bool (and .def_39 .def_204))
(define-fun .def_206 () Bool (and .def_44 .def_205))
(define-fun .def_207 () Bool (and .def_51 .def_206))
(define-fun .def_208 () Bool (and .def_53 .def_207))
(define-fun .def_209 () Bool (and .def_55 .def_208))
(define-fun .def_210 () Bool (and .def_60 .def_209))
(define-fun .def_211 () Bool (and .def_20 .def_210))
(define-fun .def_212 () Bool (and .def_22 .def_211))
(define-fun .def_213 () Bool (and .def_82 .def_212))
(define-fun .def_303 () Bool (or .def_213 .def_302))
(define-fun .def_170 () Bool (and .def_30 .def_169))
(define-fun .def_171 () Bool (and |.loc{11}| .def_170))
(define-fun .def_187 () Bool (and .def_43 .def_171))
(define-fun .def_188 () Bool (and .def_32 .def_187))
(define-fun .def_189 () Bool (and .def_34 .def_188))
(define-fun .def_190 () Bool (and .def_107 .def_189))
(define-fun .def_191 () Bool (and .def_80 .def_190))
(define-fun .def_192 () Bool (and .def_55 .def_191))
(define-fun .def_193 () Bool (and .def_22 .def_192))
(define-fun .def_194 () Bool (and .def_82 .def_193))
(define-fun .def_195 () Bool (and .def_67 .def_194))
(define-fun .def_304 () Bool (or .def_195 .def_303))
(define-fun .def_176 () (Array Int Int) (store .def_12 |.x{259}| 46))
(define-fun .def_177 () Bool (= |.y{9}| .def_176))
(define-fun .def_172 () Bool (and .def_32 .def_171))
(define-fun .def_173 () Bool (and .def_34 .def_172))
(define-fun .def_174 () Bool (and .def_39 .def_173))
(define-fun .def_178 () Bool (and .def_174 .def_177))
(define-fun .def_179 () Bool (and .def_44 .def_178))
(define-fun .def_180 () Bool (and .def_51 .def_179))
(define-fun .def_181 () Bool (and .def_53 .def_180))
(define-fun .def_182 () Bool (and .def_55 .def_181))
(define-fun .def_183 () Bool (and .def_60 .def_182))
(define-fun .def_184 () Bool (and .def_18 .def_183))
(define-fun .def_185 () Bool (and .def_22 .def_184))
(define-fun .def_186 () Bool (and .def_67 .def_185))
(define-fun .def_305 () Bool (or .def_186 .def_304))
(define-fun .def_90 () Bool (and .def_26 .def_89))
(define-fun .def_159 () Bool (and .def_30 .def_90))
(define-fun .def_160 () Bool (and |.loc{11}| .def_159))
(define-fun .def_161 () Bool (and .def_43 .def_160))
(define-fun .def_162 () Bool (and .def_32 .def_161))
(define-fun .def_163 () Bool (and .def_34 .def_162))
(define-fun .def_164 () Bool (and .def_107 .def_163))
(define-fun .def_165 () Bool (and .def_80 .def_164))
(define-fun .def_166 () Bool (and .def_55 .def_165))
(define-fun .def_167 () Bool (and .def_18 .def_166))
(define-fun .def_168 () Bool (and .def_20 .def_167))
(define-fun .def_306 () Bool (or .def_168 .def_305))
(define-fun .def_153 () (Array Int Int) (store .def_12 |.x{259}| 45))
(define-fun .def_154 () Bool (= |.y{9}| .def_153))
(define-fun .def_142 () Bool (and .def_30 .def_141))
(define-fun .def_143 () Bool (and |.loc{11}| .def_142))
(define-fun .def_144 () Bool (and .def_32 .def_143))
(define-fun .def_145 () Bool (and .def_34 .def_144))
(define-fun .def_146 () Bool (and .def_39 .def_145))
(define-fun .def_147 () Bool (and .def_44 .def_146))
(define-fun .def_148 () Bool (and .def_51 .def_147))
(define-fun .def_149 () Bool (and .def_53 .def_148))
(define-fun .def_150 () Bool (and .def_55 .def_149))
(define-fun .def_151 () Bool (and .def_60 .def_150))
(define-fun .def_155 () Bool (and .def_151 .def_154))
(define-fun .def_156 () Bool (and .def_22 .def_155))
(define-fun .def_157 () Bool (and .def_82 .def_156))
(define-fun .def_158 () Bool (and .def_67 .def_157))
(define-fun .def_307 () Bool (or .def_158 .def_306))
(define-fun .def_28 () Bool (and .def_26 .def_27))
(define-fun .def_29 () Bool (and |.loc{9}| .def_28))
(define-fun .def_131 () Bool (and |.loc{10}| .def_29))
(define-fun .def_132 () Bool (and .def_30 .def_131))
(define-fun .def_133 () Bool (and .def_43 .def_132))
(define-fun .def_134 () Bool (and .def_34 .def_133))
(define-fun .def_135 () Bool (and .def_41 .def_134))
(define-fun .def_136 () Bool (and .def_107 .def_135))
(define-fun .def_137 () Bool (and .def_80 .def_136))
(define-fun .def_138 () Bool (and .def_55 .def_137))
(define-fun .def_139 () Bool (and .def_20 .def_138))
(define-fun .def_140 () Bool (and .def_82 .def_139))
(define-fun .def_308 () Bool (or .def_140 .def_307))
(define-fun .def_114 () (Array Int Int) (store .def_12 |.x{259}| 44))
(define-fun .def_115 () Bool (= |.y{9}| .def_114))
(define-fun .def_116 () Bool (and .def_27 .def_115))
(define-fun .def_117 () Bool (and .def_26 .def_116))
(define-fun .def_118 () Bool (and |.loc{9}| .def_117))
(define-fun .def_119 () Bool (and |.loc{10}| .def_118))
(define-fun .def_120 () Bool (and .def_30 .def_119))
(define-fun .def_121 () Bool (and .def_34 .def_120))
(define-fun .def_122 () Bool (and .def_39 .def_121))
(define-fun .def_123 () Bool (and .def_41 .def_122))
(define-fun .def_124 () Bool (and .def_44 .def_123))
(define-fun .def_125 () Bool (and .def_51 .def_124))
(define-fun .def_126 () Bool (and .def_53 .def_125))
(define-fun .def_127 () Bool (and .def_55 .def_126))
(define-fun .def_128 () Bool (and .def_60 .def_127))
(define-fun .def_129 () Bool (and .def_18 .def_128))
(define-fun .def_130 () Bool (and .def_20 .def_129))
(define-fun .def_309 () Bool (or .def_130 .def_308))
(define-fun .def_91 () Bool (and |.loc{10}| .def_90))
(define-fun .def_92 () Bool (and .def_30 .def_91))
(define-fun .def_104 () Bool (and .def_43 .def_92))
(define-fun .def_105 () Bool (and .def_34 .def_104))
(define-fun .def_106 () Bool (and .def_41 .def_105))
(define-fun .def_108 () Bool (and .def_106 .def_107))
(define-fun .def_109 () Bool (and .def_80 .def_108))
(define-fun .def_110 () Bool (and .def_55 .def_109))
(define-fun .def_111 () Bool (and .def_18 .def_110))
(define-fun .def_112 () Bool (and .def_67 .def_111))
(define-fun .def_310 () Bool (or .def_112 .def_309))
(define-fun .def_86 () (Array Int Int) (store .def_12 |.x{259}| 43))
(define-fun .def_87 () Bool (= |.y{9}| .def_86))
(define-fun .def_93 () Bool (and .def_87 .def_92))
(define-fun .def_94 () Bool (and .def_34 .def_93))
(define-fun .def_95 () Bool (and .def_39 .def_94))
(define-fun .def_96 () Bool (and .def_41 .def_95))
(define-fun .def_97 () Bool (and .def_44 .def_96))
(define-fun .def_98 () Bool (and .def_51 .def_97))
(define-fun .def_99 () Bool (and .def_53 .def_98))
(define-fun .def_100 () Bool (and .def_55 .def_99))
(define-fun .def_101 () Bool (and .def_60 .def_100))
(define-fun .def_102 () Bool (and .def_20 .def_101))
(define-fun .def_103 () Bool (and .def_82 .def_102))
(define-fun .def_311 () Bool (or .def_103 .def_310))
(define-fun .def_72 () Bool (<= |.y{10}| 0))
(define-fun .def_73 () Bool (not .def_72))
(define-fun .def_69 () Bool (<= |.y{7}| 0))
(define-fun .def_70 () Bool (not .def_69))
(define-fun .def_71 () Bool (and .def_27 .def_70))
(define-fun .def_74 () Bool (and .def_71 .def_73))
(define-fun .def_75 () Bool (and .def_26 .def_74))
(define-fun .def_76 () Bool (and |.loc{9}| .def_75))
(define-fun .def_77 () Bool (and .def_30 .def_76))
(define-fun .def_78 () Bool (and .def_32 .def_77))
(define-fun .def_79 () Bool (and .def_41 .def_78))
(define-fun .def_81 () Bool (and .def_79 .def_80))
(define-fun .def_83 () Bool (and .def_81 .def_82))
(define-fun .def_84 () Bool (and .def_67 .def_83))
(define-fun .def_312 () Bool (or .def_84 .def_311))
(define-fun .def_63 () (Array Int Int) (store .def_12 |.x{259}| 42))
(define-fun .def_64 () Bool (= |.y{9}| .def_63))
(define-fun .def_31 () Bool (and .def_29 .def_30))
(define-fun .def_33 () Bool (and .def_31 .def_32))
(define-fun .def_35 () Bool (and .def_33 .def_34))
(define-fun .def_40 () Bool (and .def_35 .def_39))
(define-fun .def_42 () Bool (and .def_40 .def_41))
(define-fun .def_45 () Bool (and .def_42 .def_44))
(define-fun .def_52 () Bool (and .def_45 .def_51))
(define-fun .def_54 () Bool (and .def_52 .def_53))
(define-fun .def_56 () Bool (and .def_54 .def_55))
(define-fun .def_61 () Bool (and .def_56 .def_60))
(define-fun .def_65 () Bool (and .def_61 .def_64))
(define-fun .def_66 () Bool (and .def_18 .def_65))
(define-fun .def_68 () Bool (and .def_66 .def_67))
(define-fun .def_313 () Bool (! (or .def_68 .def_312) :trans true))
(define-fun .def_317 () Bool (and .def_18 .def_67))
(define-fun .def_318 () Bool (and .def_27 .def_317))
(define-fun .def_319 () Bool (and .def_24 .def_318))
(define-fun .def_320 () Bool (! (not .def_319) :invar-property 0))
(assert true)
